&input
   fildyn = 'GraphPhon.dyn'
   zasr = 'simple'
   flfrc = 'GraphPhon.k444.fc'
/
