
&CONTROL
	calculation = 'scf',
	restart_mode = 'from_scratch',
	verbosity= 'low',
	pseudo_dir = '/q-e-qe-6.3/pseudo/',
   	outdir = './' ,
	prefix = 'GraphPhon'
/

&system
	ibrav = 0,
	a = 2.4594, !<- Definirlo así permite que esté en Angstroms.
	nat = 2, 
	ntyp = 1, 
	ecutwfc = 40, !<- Viene en pseudopotencial.
/

&electrons
	diagonalization='david'
    	mixing_mode = 'plain'
 	mixing_beta = 0.7
conv_thr =  1.0d-10  ! bajar la convergencia de -8 a -10
/

ATOMIC_SPECIES
C 12.011 C.pbe-n-rrkjus_psl.1.0.0.UPF

CELL_PARAMETERS {alat}
 0.866024 0.50000 0.00000
 0.866024 -0.50000 0.00000
 0.00000 0.00000 4.06603

ATOMIC_POSITIONS {alat}
C 0.00000 0.00000 0.00000
C 0.577352 0.00000 0.00000

K_POINTS {automatic}
10 10 1 0 0 0 
