Phonon calculation graphene
&inputph
   outdir = './'
   prefix = 'GraphPhon'
   tr2_ph = 1.0d-14
   ldisp = .true. 
   nq1 = 4, nq2 = 4, nq3 = 4
   fildyn = 'GraphPhon.dyn'
/
