&input
   asr = 'simple'
   fildyn = 'GraphPhonG.dyn1'
   filxsf = 'GraphPhonG.dyn.axsf'
/
