Phonon calculation graphene at Gamma
&inputph
   outdir = './'
   prefix = 'GraphPhon'
   tr2_ph = 1.0d-14
   nq1 = 1, nq2 = 1, nq3 = 1 
   ldisp = .true. 
   fildyn = 'GraphPhonG.dyn'
/

